c clasp version 2.1.1
c Reading from p50.cnf
c Solving...
s SATISFIABLE

c Models        : 1+    
c Time          : 2.341s (Solving: 0.75s 1st Model: 0.75s Unsat: 0.00s)
c CPU Time      : 2.330s
c Choices       : 15334
c Conflicts     : 2075
c Restarts      : 0     

c Variables     : 229046 (Eliminated: 71501 Frozen:    0)
c Constraints   : 260880 (Binary: 64.7% Ternary: 34.0% Other:  1.2%)
c Lemmas        : 2075   (Binary:  0.0% Ternary:  0.5% Other: 99.5%)
c   Conflict    : 2075   (Average Length: 132.9) 
c   Loop        : 0      (Average Length: 0.0) 
c   Other       : 0      (Average Length: 0.0)
c   Deleted     : 0     
